SDVRP instances/custom_instances/p02_29_splitx10_0.vrp
NAME:p02_29_splitx10_
BEST_KNOWN: 0
COMMENT: 0
DIMENSION: 351
CAPACITY: 1400
EDGE_WEIGHT_FORMAT: FUNCTION
EDGE_WEIGHT_TYPE: EXACT_2D
NODE_COORD_SECTION
1 0.00000 0.00000
2 -9 -37
3 -9 -37
4 -9 -37
5 -9 -37
6 -9 -37
7 -9 -37
8 -18 -15
9 -18 -15
10 -18 -15
11 -32 4
12 -32 4
13 -32 4
14 -32 4
15 -32 4
16 -30 47
17 -30 47
18 -30 47
19 9 33
20 9 33
21 9 33
22 9 33
23 -44 9
24 -44 9
25 -44 9
26 -44 9
27 -39 -24
28 -39 -24
29 -39 -24
30 -39 -24
31 -39 -24
32 8 -16
33 8 -16
34 8 -16
35 8 -16
36 8 -16
37 46 11
38 46 11
39 46 11
40 46 11
41 46 11
42 46 11
43 46 11
44 -43 22
45 -43 22
46 -43 22
47 37 -44
48 37 -44
49 -31 -35
50 -31 -35
51 -31 -35
52 -31 -35
53 -31 -35
54 -31 -35
55 -31 -35
56 -31 -35
57 43 -5
58 43 -5
59 43 -5
60 43 -5
61 -48 -29
62 -48 -29
63 31 -5
64 31 -5
65 31 -5
66 31 -5
67 31 -5
68 -12 -12
69 -12 -12
70 -12 -12
71 -12 -12
72 -12 -12
73 -12 -12
74 -40 -29
75 -40 -29
76 -40 -29
77 -40 -29
78 -40 -29
79 -40 -29
80 20 27
81 20 27
82 20 27
83 18 -41
84 18 -41
85 -24 -30
86 -24 -30
87 -24 -30
88 22 -14
89 22 -14
90 22 -14
91 22 -14
92 22 -14
93 22 -14
94 22 -14
95 22 -14
96 -11 -38
97 -11 -38
98 -11 -38
99 -11 -38
100 -28 -47
101 -28 -47
102 -28 -47
103 8 -42
104 8 -42
105 8 -42
106 8 -42
107 48 -33
108 48 -33
109 48 -33
110 48 -33
111 -23 13
112 -23 13
113 -23 13
114 8 -38
115 8 -38
116 8 -38
117 8 -38
118 8 -38
119 8 -38
120 12 -17
121 12 -17
122 12 -17
123 12 -17
124 12 -17
125 12 -17
126 20 -31
127 20 -31
128 20 -31
129 20 -31
130 20 -31
131 49 -30
132 49 -30
133 49 -30
134 49 -30
135 49 -30
136 1 4
137 1 4
138 1 4
139 1 4
140 1 4
141 1 4
142 1 4
143 -33 46
144 -33 46
145 -33 46
146 -33 46
147 -33 46
148 -38 30
149 -38 30
150 -38 30
151 50 -2
152 50 -2
153 50 -2
154 50 -2
155 50 -2
156 5 18
157 5 18
158 5 18
159 5 18
160 30 -20
161 30 -20
162 3 -10
163 3 -10
164 3 -10
165 3 -10
166 3 -10
167 3 -10
168 46 22
169 46 22
170 46 22
171 46 22
172 46 22
173 46 22
174 46 22
175 38 26
176 38 26
177 38 26
178 38 26
179 38 26
180 5 18
181 5 18
182 5 18
183 -16 -34
184 -16 -34
185 -16 -34
186 -16 -34
187 41 -40
188 41 -40
189 41 -40
190 41 -40
191 41 -40
192 42 -50
193 42 -50
194 42 -50
195 -11 -22
196 -11 -22
197 -11 -22
198 -11 -22
199 -11 -22
200 -11 -22
201 -38 16
202 -38 16
203 -38 16
204 -38 16
205 -38 16
206 -38 49
207 -38 49
208 -38 49
209 -38 49
210 -38 49
211 -38 49
212 -25 -35
213 -25 -35
214 -25 -35
215 -49 -10
216 -49 -10
217 36 -2
218 36 -2
219 36 -2
220 34 -37
221 34 -37
222 34 -37
223 34 -37
224 -22 -12
225 -22 -12
226 -22 -12
227 -22 -12
228 -22 -12
229 -22 -12
230 -27 32
231 -27 32
232 -27 32
233 -27 32
234 -27 32
235 -44 -6
236 -44 -6
237 -44 -6
238 -44 -6
239 -44 -6
240 -44 -6
241 -27 -1
242 -27 -1
243 15 -12
244 15 -12
245 15 -12
246 15 -12
247 15 -12
248 15 -12
249 -31 22
250 -31 22
251 -31 22
252 -31 22
253 -31 22
254 -31 22
255 -31 22
256 -12 11
257 -12 11
258 -12 11
259 -12 11
260 -12 11
261 -12 11
262 34 37
263 34 37
264 34 37
265 34 37
266 34 37
267 34 37
268 34 37
269 34 -39
270 34 -39
271 34 -39
272 34 -39
273 50 47
274 50 47
275 50 47
276 50 47
277 43 16
278 43 16
279 43 16
280 10 -25
281 10 -25
282 10 -25
283 10 -25
284 -41 22
285 -41 22
286 -41 22
287 -41 22
288 -41 22
289 -41 22
290 -41 22
291 -41 22
292 19 -40
293 19 -40
294 19 -40
295 19 -40
296 19 -40
297 19 -40
298 -24 34
299 -24 34
300 -15 3
301 -15 3
302 -15 3
303 -15 3
304 -15 3
305 23 39
306 23 39
307 23 39
308 23 39
309 23 39
310 42 -50
311 42 -50
312 42 -50
313 15 -15
314 15 -15
315 15 -15
316 15 -15
317 15 -15
318 15 -15
319 6 -7
320 6 -7
321 6 -7
322 6 -7
323 6 -7
324 6 -7
325 45 19
326 45 19
327 45 19
328 45 19
329 45 19
330 45 19
331 -3 -48
332 -3 -48
333 -3 -48
334 -3 -48
335 -3 -48
336 22 -35
337 22 -35
338 22 -35
339 22 -35
340 -25 -10
341 -25 -10
342 -25 -10
343 -25 -10
344 3 19
345 3 19
346 3 19
347 3 19
348 3 19
349 3 19
350 3 19
351 3 19
DEMAND_SECTION
1 0
2 280
3 280
4 70
5 14
6 14
7 12
8 280
9 140
10 10
11 140
12 14
13 14
14 14
15 8
16 280
17 280
18 10
19 280
20 14
21 14
22 12
23 280
24 140
25 14
26 6
27 280
28 280
29 70
30 14
31 6
32 280
33 280
34 14
35 14
36 2
37 280
38 280
39 14
40 14
41 14
42 14
43 4
44 140
45 70
46 10
47 280
48 70
49 280
50 280
51 70
52 14
53 14
54 14
55 14
56 4
57 140
58 14
59 14
60 2
61 280
62 140
63 280
64 70
65 14
66 14
67 2
68 280
69 14
70 14
71 14
72 14
73 4
74 140
75 14
76 14
77 14
78 14
79 4
80 280
81 280
82 140
83 140
84 70
85 280
86 70
87 10
88 280
89 280
90 70
91 14
92 14
93 14
94 14
95 4
96 140
97 14
98 14
99 12
100 280
101 14
102 6
103 280
104 140
105 70
106 10
107 140
108 14
109 14
110 2
111 280
112 280
113 140
114 280
115 280
116 70
117 14
118 14
119 12
120 280
121 70
122 14
123 14
124 14
125 8
126 140
127 70
128 14
129 14
130 2
131 140
132 14
133 14
134 14
135 8
136 140
137 70
138 14
139 14
140 14
141 14
142 4
143 280
144 70
145 14
146 14
147 12
148 280
149 280
150 70
151 280
152 70
153 14
154 14
155 2
156 280
157 280
158 70
159 10
160 280
161 70
162 280
163 280
164 14
165 14
166 14
167 8
168 280
169 70
170 14
171 14
172 14
173 14
174 4
175 140
176 70
177 14
178 14
179 2
180 140
181 70
182 10
183 280
184 140
185 70
186 10
187 140
188 70
189 14
190 14
191 12
192 280
193 140
194 10
195 140
196 70
197 14
198 14
199 14
200 8
201 280
202 70
203 14
204 14
205 2
206 140
207 70
208 14
209 14
210 14
211 8
212 280
213 140
214 10
215 280
216 10
217 280
218 140
219 70
220 280
221 70
222 14
223 6
224 280
225 14
226 14
227 14
228 14
229 4
230 280
231 140
232 14
233 14
234 12
235 280
236 140
237 70
238 14
239 14
240 2
241 280
242 70
243 140
244 14
245 14
246 14
247 14
248 4
249 280
250 140
251 70
252 14
253 14
254 14
255 8
256 280
257 280
258 70
259 14
260 14
261 12
262 280
263 140
264 14
265 14
266 14
267 14
268 4
269 280
270 140
271 70
272 10
273 280
274 140
275 14
276 6
277 280
278 140
279 10
280 280
281 14
282 14
283 2
284 280
285 280
286 70
287 14
288 14
289 14
290 14
291 4
292 280
293 280
294 70
295 14
296 14
297 2
298 280
299 280
300 280
301 280
302 14
303 14
304 12
305 140
306 70
307 14
308 14
309 2
310 280
311 280
312 10
313 140
314 14
315 14
316 14
317 14
318 4
319 280
320 14
321 14
322 14
323 14
324 4
325 280
326 280
327 70
328 14
329 14
330 2
331 280
332 140
333 14
334 14
335 12
336 140
337 14
338 14
339 12
340 280
341 14
342 14
343 2
344 280
345 280
346 70
347 14
348 14
349 14
350 14
351 4
DEPOT_SECTION
1
-1
EOF