SDVRP instances/custom_instances/p02_29_splitx10_0.sol
350 -9 8 7 223 339 342 340 341 300 303 301 -14 13 12 11 10 239 236 238 234 237 235 214 215 241 240 -16 17 15 143 142 144 146 145 207 209 210 208 205 206 233 231 232 230 -34 32 31 35 33 279 281 280 282 119 120 122 123 -59 58 56 57 154 153 151 152 150 37 39 41 36 40 38 42 277 136 141 -66 64 65 63 62 216 218 217 159 160 315 312 313 -69 70 72 68 85 86 84 50 52 49 55 48 53 54 51 101 100 99 -71 67 212 211 213 182 183 185 184 196 199 194 197 -73 77 78 74 75 76 60 61 26 27 30 29 28 226 224 227 225 228 -79 80 81 19 18 21 20 157 181 180 137 138 139 140 135 -92 90 89 87 88 94 93 91 245 247 246 244 242 243 322 318 323 321 319 320 -102 103 104 105 117 118 114 115 113 116 -111 110 112 259 260 255 258 256 257 -121 124 47 46 310 309 311 191 192 193 222 221 -129 128 126 127 125 337 336 335 338 293 296 294 291 292 295 83 82 220 317 316 314 -133 134 132 130 131 108 106 109 107 187 189 188 190 186 268 269 270 271 219 -149 148 147 286 289 283 285 284 290 287 288 -156 158 155 179 350 348 347 346 345 349 344 343 -161 163 164 162 166 165 -171 170 168 173 169 172 167 326 327 328 324 329 325 278 276 -178 174 175 177 176 272 274 275 273 266 265 264 262 261 267 263 308 305 306 304 307 -195 198 4 2 1 6 3 5 97 96 95 98 334 333 331 332 330 -201 204 202 203 200 43 44 45 24 23 22 25 302 299 -251 254 252 253 248 250 249 229 297 298 0 





OBJ=
2247.501
BEST_KNOWN=
0.000